\ Model master problem
\ LP format - for model browsing. Use MPS format to capture full model detail.
Minimize
  eta + 400 y_0 + 18 z_0 + 414 y_1 + 25 z_1 + 326 y_2 + 20 z_2
Subject To
 R0: - 800 y_0 + z_0 <= 0
 R1: - 800 y_1 + z_1 <= 0
 R2: - 800 y_2 + z_2 <= 0
 R3: eta - 22 x_0_0_0 - 33 x_0_0_1 - 24 x_0_0_2 - 33 x_0_1_0 - 23 x_0_1_1
   - 30 x_0_1_2 - 20 x_0_2_0 - 25 x_0_2_1 - 27 x_0_2_2 >= 0
 R4: z_0 + z_1 + z_2 >= 772
 R5: eta - 22 x_1_0_0 - 33 x_1_0_1 - 24 x_1_0_2 - 33 x_1_1_0 - 23 x_1_1_1
   - 30 x_1_1_2 - 20 x_1_2_0 - 25 x_1_2_1 - 27 x_1_2_2 >= 0
 R6: - z_0 + x_1_0_0 + x_1_0_1 + x_1_0_2 <= 0
 R7: - z_1 + x_1_1_0 + x_1_1_1 + x_1_1_2 <= 0
 R8: - z_2 + x_1_2_0 + x_1_2_1 + x_1_2_2 <= 0
 R9: x_1_0_0 + x_1_1_0 + x_1_2_0 >= 206
 R10: x_1_0_1 + x_1_1_1 + x_1_2_1 >= 314
 R11: x_1_0_2 + x_1_1_2 + x_1_2_2 >= 252
 R12: eta - 22 x_2_0_0 - 33 x_2_0_1 - 24 x_2_0_2 - 33 x_2_1_0 - 23 x_2_1_1
   - 30 x_2_1_2 - 20 x_2_2_0 - 25 x_2_2_1 - 27 x_2_2_2 >= 0
 R13: - z_0 + x_2_0_0 + x_2_0_1 + x_2_0_2 <= 0
 R14: - z_1 + x_2_1_0 + x_2_1_1 + x_2_1_2 <= 0
 R15: - z_2 + x_2_2_0 + x_2_2_1 + x_2_2_2 <= 0
 R16: x_2_0_0 + x_2_1_0 + x_2_2_0 >= 206
 R17: x_2_0_1 + x_2_1_1 + x_2_2_1 >= 306
 R18: x_2_0_2 + x_2_1_2 + x_2_2_2 >= 260
Bounds
Binaries
 y_0 y_1 y_2
End
